    64
 i =     4974, time =     4974.000, E =     -1610.4987222551
 Cu        -0.1191837857        0.0102938065       -0.0715169108
 Cu         2.2244418852        2.6398465946        5.3362132864
 Cu        -0.2607110910        5.3802760813       -0.0085512424
 Cu         5.1453669244        0.0755884666       -0.1513978616
 Cu         2.5469805017        7.9455180805        5.2961688497
 Cu         8.0835621159        2.6453678854        5.0552043428
 Cu         5.2036295607        5.5264539034       -0.0080683590
 Cu         7.8858085147        8.1953931526        5.5175519892
 Cu        -0.1825911503        2.4626078058        2.5593195065
 Cu        -0.4319415716        8.0601580829        2.6099349296
 Cu         2.5501602881       -0.0146667987        7.7505866115
 Cu         8.0522902895        0.0114406621        8.0332992686
 Cu         2.4036809022        5.2192019388        8.3744767923
 Cu         5.2974307242        2.6480216156        2.6882470844
 Cu         5.2643240365        7.9967098424        2.7659831551
 Cu         7.9033797273        5.1372331176        8.0506774082
 Zn        -0.1976271330        2.7285693996        8.2544667680
 Zn        -0.0022143197        8.0418034217        8.1315882321
 Zn         2.7139379725       -0.1986505981        2.7003771733
 Zn         7.8813500020       -0.0718598394        2.7149762410
 Zn         2.5263590932        5.3270545401        2.7114454041
 Zn         5.3492616968        2.5538917289        8.1344153009
 Zn         5.2232466854        8.0221838655        8.1360878029
 Zn         7.8894802408        5.3427621827        2.6662950282
 Sn        -0.2765509291       -0.1168469844        5.3332828860
 Sn         2.4343462185        2.6300907804       -0.0387712419
 Sn        -0.2107594109        5.4471891358        5.3644226094
 Sn         5.2483838851        0.0574596166        5.4396931081
 Sn         2.5388629947        8.2617823436        0.0381419370
 Sn         8.0287455810        2.6158601802       -0.0877068332
 Sn         5.1568076395        5.3616014679        5.4137035891
 Sn         7.9727880168        8.2156121593       -0.0921806777
  S         4.0195587267        1.2550378229        1.3990348906
  S         6.4973453611        9.6012857901        1.2282430280
  S         1.1581326431        6.6628735576        9.4545096033
  S         9.3722629188        4.1095529734        9.3477320597
  S         6.6253475965        3.9723419958        6.6489955284
  S         9.2017616888        1.4209488650        6.6925335465
  S         4.0196622668        9.3128202579        4.1423217029
  S         1.2012037742        6.7845285324        3.9217703751
  S         3.8691648223        6.7701837464        1.4594726504
  S         6.4921794239        4.0949601261        1.2461527431
  S         6.5836335349        6.5655135438        9.2438056375
  S         3.9844500894        4.0181798574        9.5222340076
  S         6.6489295873        9.4719040266        6.8630706018
  S         9.1204455600        6.7758357050        6.9053353477
  S         9.1322653625        9.3136745152        3.9591022059
  S         6.6758693572        6.7793160746        4.0743691993
  S         9.3573868721        1.2022107293        1.3637268890
  S         1.0359573812        9.5157771375        1.4782409143
  S         1.1015733996        1.1568620712        9.3501182965
  S         9.3860146533        9.5083867568        9.2234059615
  S         1.1477432223        3.9676615072        6.7651764482
  S         3.7179790882        1.4683074948        6.8262089812
  S         3.7246470471        3.9388697006        4.0195805600
  S         1.1811194357        1.1290173837        3.9238556994
  S         9.2871179795        6.7790247292        1.2633551528
  S         1.0925943813        4.1609946703        1.3053513815
  S         6.6208723321        1.2153820226        9.3761837477
  S         3.8622971331        9.4938174668        9.3542271023
  S         1.2904101590        9.3155579646        6.5953301315
  S         3.6835880464        6.7460119987        6.9193947850
  S         9.4855174295        3.9761962845        3.8691417686
  S         6.6904479338        1.2787353282        3.9525799905