 64
 CZTS_frame_4974.xyz
Cu      -0.12007272       0.01108279      -0.07206049
Cu       2.22428008       2.63979956       5.33575073
Cu      -0.26156504       5.38068120      -0.00832582
Cu       5.14414769       0.07705402      -0.15079320
Cu       2.54650639       7.94608135       5.29587732
Cu       8.08352423       2.64586038       5.05441977
Cu       5.20398909       5.52732733      -0.00724281
Cu       7.88562140       8.19595687       5.51653959
Cu      -0.18268991       2.46288843       2.55848066
Cu      -0.43199257       8.06123489       2.61156952
Cu       2.55064562      -0.01414946       7.74998789
Cu       8.05153523       0.01055893       8.03363737
Cu       2.40415036       5.21879066       8.37370969
Cu       5.29759153       2.64821697       2.68816541
Cu       5.26511692       7.99665180       2.76594186
Cu       7.90268784       5.13731800       8.05151843
Zn      -0.19758896       2.72861367       8.25473751
Zn      -0.00204108       8.04213447       8.13192332
Zn       2.71432403      -0.19914695       2.70056449
Zn       7.88034939      -0.07169327       2.71418857
Zn       2.52631460       5.32735050       2.71118640
Zn       5.34932270       2.55286757       8.13388009
Zn       5.22367640       8.02146306       8.13649390
Zn       7.88861345       5.34219568       2.66561112
Sn      -0.27654647      -0.11651337       5.33261747
Sn       2.43423292       2.63110341      -0.03896940
Sn      -0.21126875       5.44743049       5.36428298
Sn       5.24794580       0.05633850       5.44020401
Sn       2.53850648       8.26178283       0.03747787
Sn       8.02955828       2.61632710      -0.08709444
Sn       5.15673870       5.36189360       5.41425962
Sn       7.97342671       8.21580719      -0.09221933
S        4.01933429       1.25457042       1.39843211
S        6.49757014       9.60113311       1.22699695
S        1.15803572       6.66353774       9.45433781
S        9.37110583       4.10947534       9.34822214
S        6.62547371       3.97207474       6.65014947
S        9.20294789       1.42088742       6.69304140
S        4.01990731       9.31330814       4.14322902
S        1.20171584       6.78458329       3.92136237
S        3.86865794       6.77016780       1.46019574
S        6.49236705       4.09499325       1.24631337
S        6.58365585       6.56585520       9.24310454
S        3.98321688       4.01791442       9.52151661
S        6.64993797       9.47180508       6.86291273
S        9.11948524       6.77601182       6.90494601
S        9.13296575       9.31419971       3.95861779
S        6.67612578       6.77761639       4.07394883
S        9.35816493       1.20270408       1.36383636
S        1.03593909       9.51489089       1.47739185
S        1.10171288       1.15796200       9.34876295
S        9.38640704       9.50876210       9.22399955
S        1.14720053       3.96733123       6.76520497
S        3.71733756       1.46754001       6.82565747
S        3.72460279       3.93910323       4.01956521
S        1.18116767       1.12859040       3.92340566
S        9.28781762       6.77899051       1.26330370
S        1.09317875       4.16176793       1.30614603
S        6.62112574       1.21535060       9.37636438
S        3.86240908       9.49468996       9.35440944
S        1.29080873       9.31554055       6.59618612
S        3.68230642       6.74624956       6.91986640
S        9.48479375       3.97753879       3.86904795
S        6.69034731       1.27806140       3.95312813
